27	3	3
5	5	4	40	30	47	
0	0	0	0	9	6	4	9	3	9	25	2	3	4	5	6	7	8	9	10	11	12	13	14	15	16	17	18	19	20	21	22	23	24	25	26
5	2	2	2	3	8	7	7	4	5	5	27	21	4	11	7
5	1	1	2	10	8	4	3	10	2	5	27	13	17	20	11
2	2	0	0	10	1	2	7	1	3	5	27	7	19	14	12
2	2	2	0	8	9	6	1	2	8	5	27	17	23	12	7
3	0	0	1	2	10	4	6	9	6	5	27	12	19	22	25
2	0	2	1	5	2	3	2	9	7	5	27	14	20	17	11
4	2	2	0	7	8	5	10	10	5	2	27	20
4	0	2	2	1	10	5	2	7	5	4	27	15	13	26
3	2	2	2	5	4	4	1	5	6	3	27	24	11
3	1	1	1	8	7	6	1	3	5	3	27	26	16
1	2	0	2	7	7	6	9	9	4	2	27	15
4	2	2	1	6	5	2	1	4	2	2	27	17
2	1	0	0	5	5	2	10	7	8	3	27	19	18
3	2	1	1	5	1	2	9	2	6	2	27	17
3	2	1	1	4	9	3	9	10	5	2	27	24
2	2	2	2	3	7	2	9	6	10	3	27	22	24
5	2	1	0	3	1	4	5	2	8	1	27
1	1	2	2	6	6	2	7	6	8	2	27	21
3	2	1	1	5	1	9	6	9	10	2	27	22
4	1	2	0	2	2	9	4	1	9	1	27
5	1	1	1	9	3	5	1	2	10	1	27
4	0	2	0	10	4	1	4	8	3	2	27	25
5	2	2	0	2	4	8	3	1	4	1	27
5	2	2	0	1	5	4	10	10	2	1	27
5	1	1	1	9	1	4	8	5	4	1	27
0	0	0	0	6	4	7	1	4	9	0
